problems/csplib-prob056/sonet-models/noch/O2/lingeling/model_3_1-s2ring15-solution000001.eprime-solution
language ESSENCE' 1.0

letting network_ExplicitWithFlagsR5_Flags be [1, 2, 1, 1, 1, 0; int(1..6)]
letting network_ExplicitWithFlagsR5_Values_ExplicitVarSizeWithMarker_Marker be [0, 2, 4, 4, 5, 0; int(1..6)]
letting network_ExplicitWithFlagsR5_Values_ExplicitVarSizeWithMarker_Values be
        [[1, 1, 1, 1, 1; int(1..5)], [2, 10, 1, 1, 1; int(1..5)], [1, 4, 7, 9, 1; int(1..5)],
         [3, 5, 6, 7, 1; int(1..5)], [2, 3, 6, 8, 9; int(1..5)], [1, 1, 1, 1, 1; int(1..5)]; int(1..6)]
