problems/csplib-prob056/sonet-models/noch/O2/lingeling/model_3_1-s2ring15-solution000001.solution
language Essence 1.3

letting network be mset({}, {1, 4, 7, 9}, {2, 3, 6, 8, 9}, {2, 10}, {2, 10}, {3, 5, 6, 7})
$ Here is a simple "visualisation" for the value above.
$ 
$  1  4  7  9
$  2  3  6  8  9
$  2 10
$  2 10
$  3  5  6  7

